Problem:    
Rows:       105
Columns:    45 (34 integer, 34 binary)
Non-zeros:  302
Status:     INTEGER OPTIMAL
Objective:  value = 49.78134 (MINimum)

   No.   Row name        Activity     Lower bound   Upper bound
------ ------------    ------------- ------------- -------------
     1 r.5                   49.7813             0               
     2 r.6                  -6.28661      -483.044               
     3 r.7                   549.781             0               
     4 r.8                  -450.219      -494.777               
     5 r.9                   49.7813             0               
     6 r.10                 -379.418      -429.199               
     7 r.11                  549.781             0               
     8 r.12                 -455.442      -475.383               
     9 r.13                  549.781             0               
    10 r.14                 -450.219      -456.706               
    11 r.15                  49.7813             0               
    12 r.16                  13.5966      -481.222               
    13 r.17                  49.7813             0               
    14 r.18                  6.48739      -487.226               
    15 r.19                  549.781             0               
    16 r.20                 -480.059      -493.655               
    17 r.21                  49.7813             0               
    18 r.22                   1.6061      -499.616               
    19 r.23                  549.781             0               
    20 r.24                 -498.394      -498.394               
    21 r.25                        1             1             = 
    22 r.26                        1             1             = 
    23 r.27                        1             1             = 
    24 r.28                        1             1             = 
    25 r.29                        1             1             = 
    26 r.30                  126.869       70.8011               
    27 r.31                 -126.869      -483.044               
    28 r.32                  494.777       24.6166               
    29 r.33                 -494.777      -494.777               
    30 r.34                  56.0679        43.294               
    31 r.35                 -56.0679      -483.044               
    32 r.36                  463.815       18.7777               
    33 r.37                 -463.815      -494.777               
    34 r.38                   12.774        12.774               
    35 r.39                  -12.774      -483.044               
    36 r.40                   470.16        6.3447               
    37 r.41                  -470.16      -494.777               
    38 r.42                 -7.89271      -479.498               
    39 r.43                 -451.825      -482.786               
    40 r.44                 -7.89271      -479.498               
    41 r.45                 -451.825      -482.786               
    42 r.46                  373.131       16.9556               
    43 r.47                 -373.131      -429.199               
    44 r.48                   5.2234        5.2234               
    45 r.49                  -5.2234      -475.383               
    46 r.50                  429.199        43.294               
    47 r.51                 -429.199      -429.199               
    48 r.52                  469.039       18.7777               
    49 r.53                 -469.039      -475.383               
    50 r.54                  385.905        12.774               
    51 r.55                 -385.905      -429.199               
    52 r.56                  475.383        6.3447               
    53 r.57                 -475.383      -475.383               
    54 r.58                 -381.024      -425.652               
    55 r.59                 -457.048      -463.393               
    56 r.60                 -381.024      -425.652               
    57 r.61                 -457.048      -463.393               
    58 r.62                  443.932       16.9556               
    59 r.63                 -443.932      -456.706               
    60 r.64                  36.1847        5.2234               
    61 r.65                 -36.1847      -481.222               
    62 r.66                  70.8011       70.8011               
    63 r.67                 -70.8011      -456.706               
    64 r.68                  30.9613       24.6166               
    65 r.69                 -30.9613      -481.222               
    66 r.70                  456.706        12.774               
    67 r.71                 -456.706      -456.706               
    68 r.72                   6.3447        6.3447               
    69 r.73                  -6.3447      -481.222               
    70 r.74                 -451.825       -453.16               
    71 r.75                  11.9905      -469.232               
    72 r.76                 -451.825       -453.16               
    73 r.77                  11.9905      -469.232               
    74 r.78                  487.226       16.9556               
    75 r.79                 -487.226      -487.226               
    76 r.80                    29.84        5.2234               
    77 r.81                   -29.84      -493.655               
    78 r.82                  114.095       70.8011               
    79 r.83                 -114.095      -487.226               
    80 r.84                  24.6166       24.6166               
    81 r.85                 -24.6166      -493.655               
    82 r.86                   43.294        43.294               
    83 r.87                  -43.294      -487.226               
    84 r.88                  493.655       18.7777               
    85 r.89                 -493.655      -493.655               
    86 r.90                  4.88129       -483.68               
    87 r.91                 -481.665      -481.665               
    88 r.92                  4.88129       -483.68               
    89 r.93                 -481.665      -481.665               
    90 r.94                 -7.89271      -479.498               
    91 r.95                 -451.825      -482.786               
    92 r.96                 -7.89271      -479.498               
    93 r.97                 -451.825      -482.786               
    94 r.98                 -381.024      -425.652               
    95 r.99                 -457.048      -463.393               
    96 r.100                -381.024      -425.652               
    97 r.101                -457.048      -463.393               
    98 r.102                -451.825       -453.16               
    99 r.103                 11.9905      -469.232               
   100 r.104                -451.825       -453.16               
   101 r.105                 11.9905      -469.232               
   102 r.106                 4.88129       -483.68               
   103 r.107                -481.665      -481.665               
   104 r.108                 4.88129       -483.68               
   105 r.109                -481.665      -481.665               

   No. Column name       Activity     Lower bound   Upper bound
------ ------------    ------------- ------------- -------------
     1 tt                    49.7813             0               
     2 s_1_1        *              0             0             1 
     3 t_1_1                 56.0679             0               
     4 s_2_1        *              1             0             1 
     5 t_2_1                       0             0               
     6 s_1_2        *              0             0             1 
     7 t_1_2                 429.199             0               
     8 s_2_2        *              1             0             1 
     9 t_2_2                  5.2234             0               
    10 s_1_3        *              1             0             1 
    11 t_1_3                       0             0               
    12 s_2_3        *              0             0             1 
    13 t_2_3                 36.1847             0               
    14 s_1_4        *              0             0             1 
    15 t_1_4                  43.294             0               
    16 s_2_4        *              1             0             1 
    17 t_2_4                   29.84             0               
    18 s_1_5        *              0             0             1 
    19 t_1_5                 48.1752             0               
    20 s_2_5        *              1             0             1 
    21 t_2_5                 48.1752             0               
    22 u_1_1_2      *              1             0             1 
    23 u_2_1_2      *              1             0             1 
    24 u_1_1_3      *              0             0             1 
    25 u_2_1_3      *              1             0             1 
    26 u_1_1_4      *              0             0             1 
    27 u_2_1_4      *              1             0             1 
    28 u_1_2_1      *              0             0             1 
    29 u_2_2_1      *              0             0             1 
    30 u_1_2_3      *              0             0             1 
    31 u_2_2_3      *              1             0             1 
    32 u_1_2_4      *              0             0             1 
    33 u_2_2_4      *              1             0             1 
    34 u_1_3_1      *              1             0             1 
    35 u_2_3_1      *              0             0             1 
    36 u_1_3_2      *              1             0             1 
    37 u_2_3_2      *              0             0             1 
    38 u_1_3_4      *              1             0             1 
    39 u_2_3_4      *              0             0             1 
    40 u_1_4_1      *              1             0             1 
    41 u_2_4_1      *              0             0             1 
    42 u_1_4_2      *              1             0             1 
    43 u_2_4_2      *              0             0             1 
    44 u_1_4_3      *              0             0             1 
    45 u_2_4_3      *              1             0             1 

Integer feasibility conditions:

KKT.PE: max.abs.err = 0.00e+00 on row 0
        max.rel.err = 0.00e+00 on row 0
        High quality

KKT.PB: max.abs.err = 5.33e-15 on row 34
        max.rel.err = 4.84e-16 on row 68
        High quality

End of output
